
%    +---------------+
% 10 | | | | | | | | |
% 9  | | | | | | | | |
% 8  | | | | | | | | |
% 7  | | | | | | | | |
% 6  | | | | | | | | |
% 5  | | | | | | | | |
% 4  | |1|1| | | | | |
% 3  | |1|1|3| | | | |
% 2  | | |2| |4| |6| |
% 1  | | | | | | |5| |
%    +---------------+
n=8;
m=10;
h=2;
%maxT=15;
boxNumber=6;
boxSideLen = [2, 1, 1, 1, 1, 1];
boxStartX  = [2, 3, 4, 5, 7, 7];
boxStartY  = [3, 2, 3, 2, 1, 2];
